WARNING: for repeatability, setting FPU to use double precision
============================[ Problem Statistics ]=============================
|                                                                             |
|  Number of variables:           100                                         |
|  Number of clauses:             449                                         |
|  Parse time:                   0.00 s                                       |
|  Eliminated clauses:           0.00 Mb                                      |
|  Simplification time:          0.00 s                                       |
|                                                                             |
============================[ Search Statistics ]==============================
| Conflicts |          ORIGINAL         |          LEARNT          | Progress |
|           |    Vars  Clauses Literals |    Limit  Clauses Lit/Cl |          |
===============================================================================
|       100 |      98      446     1346 |      163      100      7 |  0.010 % |
|       250 |      98      446     1346 |      179      165      6 |  0.010 % |
===============================================================================
restarts              : 3
conflicts             : 325            (108297 /sec)
decisions             : 410            (0.00 % random) (136621 /sec)
propagations          : 7553           (2516828 /sec)
conflict literals     : 2140           (19.25 % deleted)
Memory used           : 13.00 MB
CPU time              : 0.003001 s

SATISFIABLE
